c Source: inf-power (1-hop neighborhood of node 2554)
c n=21, m=36, circuit_rank=16
c Augmented with 6 edges for Eulerian condition
p sp 21
e 1 5
e 1 2
e 1 13
e 5 11
e 1 16
e 1 12
e 1 7
e 1 4
e 1 14
e 17 20
e 1 6
e 1 18
e 18 20
e 17 19
e 6 13
e 1 20
e 5 16
e 1 9
e 3 12
e 3 14
e 1 17
e 4 5
e 1 19
e 1 11
e 1 3
e 11 16
e 1 8
e 1 10
e 1 15
e 3 20
e 1 21
e 2 21
e 7 8
e 9 10
e 11 15
e 16 17
